p cnf 10 45
7 4 10 0
-8 5 -9 0
-9 -8 -1 0
9 2 3 0
-7 -9 -4 0
-3 -6 5 0
2 5 -6 0
-6 4 -3 0
-8 10 1 0
-1 -6 -3 0
10 -6 7 0
10 8 7 0
5 -6 10 0
-6 -9 3 0
-9 4 2 0
3 6 8 0
-6 -2 -9 0
-8 -5 3 0
2 -6 8 0
6 7 9 0
9 3 5 0
-8 2 -6 0
-1 5 7 0
-9 4 3 0
5 2 -9 0
7 4 6 0
-1 -9 3 0
-6 10 -4 0
-8 4 7 0
3 2 -8 0
-6 3 4 0
-9 4 10 0
-8 10 -1 0
-1 3 5 0
-9 3 -7 0
4 3 -9 0
10 4 -8 0
2 -8 -9 0
4 -9 3 0
-9 3 -10 0
-1 -6 7 0
-8 3 -9 0
-1 -8 5 0
4 6 10 0
10 -8 5 0
%
0